c --- [ banner ] -------------------------------------------------------------
c 
c CaDiCaL Radically Simplified CDCL SAT Solver
c Copyright (c) 2016-2021 A. Biere, M. Fleury, N. Froleyks
c 
c Version 1.5.2 ca9bff05c11bde5eae4912f9932871d1527e61d8
c g++ (GCC) 9.3.0 -Wall -Wextra -O3 -DNDEBUG
c Sun May 1 02:23:23 EDT 2022 Linux gra-login1 3.10.0-1160.59.1.el7.x86_64 x86_64
c 
c --- [ limit ] --------------------------------------------------------------
c 
c setting conflict limit to 200000 conflicts (due to '200000')
c 
c --- [ parsing input ] ------------------------------------------------------
c 
c reading DIMACS file from '12.cubes802.adj'
c opening file to read '12.cubes802.adj'
c found 'p cnf 5320 924209' header
c parsed 924209 clauses in 8.81 seconds process time
c closing file '12.cubes802.adj'
c after reading 686668108 bytes 654.9 MB
c 
c --- [ options ] ------------------------------------------------------------
c 
c all options are set to their default value
c 
c --- [ solving ] ------------------------------------------------------------
c 
c time measured in process time since initialization
c 
c  seconds   reductions  redundant  irredundant
c          MB    restarts       trail      variables
c           level   conflicts       glue        remaining
c 
c *  8.81 693  0 0   0    0    0  0% 0 923580 3949 74%
c {  9.45 724  0 0   0    0    0  0% 0 923580 3949 74%
c i  9.72 727 254 0   0    4    3 50% 7 923580 3945 74%
c i 10.65 743 69 0   8   77   54 47% 13 923580 3939 74%
c i 10.76 744 78 0  10   86   62 46% 16 923580 3923 74%
c i 11.04 746 74 0  24  135  100 49% 18 923580 3919 74%
c i 11.15 746 84 0  32  165  126 49% 29 923580 3918 74%
c i 11.40 747 86 0  45  214  159 48% 33 923580 3917 74%
c i 11.52 747 86 0  60  280  217 50% 36 923580 3915 74%
c - 13.26 692 86 1  65  301  236 50% 36 89667 3915 74%
c i 13.33 692 85 1  66  306  240 50% 36 89667 3914 74%
c i 13.34 692 82 1  66  328  258 51% 36 89667 3913 74%
c i 13.37 692 73 1  66  436  355 52% 35 89667 3912 74%
c i 13.39 692 68 1  66  546  445 51% 35 89667 3911 74%
c i 13.47 692 73 1  87  645  529 51% 39 89667 3641 68%
c i 13.47 692 71 1  90  669  540 51% 38 89667 3511 66%
c i 13.47 692 70 1  90  671  541 51% 38 89667 3510 66%
c i 13.48 692 68 1  90  695  559 52% 37 89667 3509 66%
c i 13.48 692 66 1  90  731  584 52% 36 89667 3508 66%
c i 13.48 692 65 1  90  739  588 52% 35 89667 3507 66%
c 
c  seconds   reductions  redundant   irredundant
c          MB    restarts       trail      variables
c           level   conflicts       glue        remaining
c 
c i 13.48 692 65 1  90  740  588 52% 35 89667 3506 66%
c i 13.49 692 64 1  90  759  601 52% 34 89667 3505 66%
c i 13.49 692 63 1  90  763  604 52% 34 89667 3504 66%
c i 13.49 692 62 1  90  780  614 52% 34 89667 3503 66%
c i 13.49 692 60 1  90  812  636 52% 33 89667 3502 66%
c i 13.49 692 58 1  90  852  666 52% 32 89667 3501 66%
c i 13.50 692 58 1  90  869  679 52% 32 89667 3500 66%
c i 13.50 692 58 1  90  870  679 52% 32 89667 3499 66%
c i 13.50 692 58 1  90  871  679 52% 32 89667 3498 66%
c i 13.50 692 57 1  90  899  703 52% 31 89667 3497 66%
c - 13.63 692 56 2  90  901  540 52% 31 16688 3497 66%
c } 13.64 692 53 2  90 1000  611 53% 29 16688 3497 66%
c [ 13.64 692  0 2  90 1000  611  0% 0 16688 3497 66%
c i 13.64 692 11 2  90 1002  612 56% 4 16688 3496 66%
c O 13.64 692  8 2  90 1003  613 50% 4 16688 3496 66%
c i 13.65 692 12 2  90 1018  626 57% 8 16688 3495 66%
c i 13.65 692 14 2  90 1052  647 57% 10 16688 3494 66%
c i 13.65 692 14 2  90 1074  667 57% 11 16688 3493 66%
c i 13.66 692 14 2  90 1132  717 57% 11 16688 3492 66%
c i 13.66 692 14 2  90 1141  724 57% 11 16688 3491 66%
c 
c  seconds   reductions  redundant   irredundant
c          MB    restarts       trail      variables
c           level   conflicts       glue        remaining
c 
c i 13.66 692 14 2  90 1173  745 57% 12 16688 3490 66%
c i 13.67 692 14 2  90 1241  796 57% 11 16688 3489 66%
c i 13.68 692 14 2  90 1369  905 57% 12 16688 3488 66%
c i 13.69 692 14 2  90 1401  925 57% 12 16688 3487 66%
c i 13.69 692 14 2  90 1460  966 57% 12 16688 3486 66%
c i 13.71 692 14 2  90 1584 1047 57% 12 16688 3485 66%
c i 13.71 692 14 2  90 1619 1073 56% 12 16688 3484 65%
c i 13.72 692 14 2  90 1661 1105 56% 12 16688 3483 65%
c i 13.73 692 15 2  90 1783 1189 56% 12 16688 3482 65%
c - 13.74 692 15 3  90 1802  917 56% 12 16656 3482 65%
c i 13.77 692 17 3  91 2095 1098 56% 14 16656 3481 65%
c i 13.79 692 17 3  91 2200 1150 56% 14 16656 3480 65%
c i 13.83 692 17 3  91 2561 1342 56% 14 16656 3479 65%
c i 13.85 692 18 3  91 2779 1450 56% 16 16656 3478 65%
c ] 13.88 692 18 3  91 3000 1564 56% 16 16656 3478 65%
c { 13.88 692 53 3  91 3000 1564 53% 29 16656 3478 65%
c - 13.88 692 53 4  91 3002 1045 53% 29 16646 3478 65%
c F 13.89 666 52 4  91 3004 1047 27% 29 16646 3478 65%
c i 13.90 666 52 4  91 3011 1049 32% 29 16646 3477 65%
c i 13.91 666 48 4  91 3139 1127 34% 27 16646 3476 65%
c 
c  seconds   reductions  redundant   irredundant
c          MB    restarts       trail      variables
c           level   conflicts       glue        remaining
c 
c i 13.92 666 44 4  91 3355 1276 34% 26 16646 3475 65%
c i 13.94 666 40 4  91 3591 1422 34% 24 16646 3474 65%
c i 13.95 666 39 4  91 3677 1477 34% 23 16646 3473 65%
c i 13.97 666 35 4  91 3914 1572 34% 22 16646 3472 65%
c i 13.97 666 35 4  91 3936 1571 34% 21 16646 3471 65%
c i 13.98 666 34 4  91 4003 1617 34% 21 16646 3470 65%
c i 13.98 666 34 4  91 4033 1640 34% 21 16646 3469 65%
c i 13.99 666 34 4  97 4159 1730 34% 21 16646 3468 65%
c i 14.00 666 32 4  97 4354 1845 34% 21 16646 3467 65%
c - 14.02 666 32 5  97 4504 1359 34% 21 16615 3467 65%
c i 14.03 666 31 5  99 4601 1425 34% 21 16615 3466 65%
c d 14.07 666 30 5  99 5001 1688 34% 20 16120 3461 65%
c 2 14.08 666 30 5  99 5001 3770 34% 20 16034 3461 65%
c p 14.20 666 30 5  99 5001 15304 34% 20 16034 3344 63%
c d 14.21 666 30 5  99 5001 15232 34% 20 15679 3340 63%
c # 14.30 666 25 5  99 6006 15675 34% 18 15679 3340 63%
c } 14.30 666 25 5  99 6066 15717 34% 17 15679 3340 63%
c 1 14.30 666 25 5  99 6066 15717 34% 17 15679 3340 63%
c 
c --- [ writing output ] -----------------------------------------------------
c 
c writing simplified CNF to DIMACS file 'simp/12.cubes802.adj.simp1'
c * 14.30 666 25 5  99 6066 15717 34% 17 15679 3340 63%
c opening file to write 'simp/12.cubes802.adj.simp1'
c writing 'p cnf 5320 15679' header
c closing file 'simp/12.cubes802.adj.simp1'
c after writing 1935132 bytes 1.8 MB
c wrote 15679 clauses in 0.02 seconds process time
c 
c --- [ writing extension ] --------------------------------------------------
c 
c writing extension stack to 'simp/12.cubes802.adj.ext1'
c opening file to write 'simp/12.cubes802.adj.ext1'
c closing file 'simp/12.cubes802.adj.ext1'
c after writing 28945 bytes 0.0 MB
c wrote 1989 witnesses in 0.00 seconds process time
c 
c --- [ result ] -------------------------------------------------------------
c 
s SATISFIABLE
c 
c --- [ run-time profiling ] -------------------------------------------------
c 
c process time taken by individual solving procedures
c (percentage relative to process time for solving)
c 
c         8.81  160.32% parse
c         5.34   97.27% search
c         4.46   81.27% unstable
c         0.64   11.73% lucky
c         0.23    4.27% stable
c         0.15    2.72% simplify
c         0.12    2.27% probe
c         0.01    0.13% ternary
c   =================================
c         5.49   38.37% solve
c 
c last line shows process time for solving
c (percentage relative to total process time)
c 
c --- [ statistics ] ---------------------------------------------------------
c 
c chronological:              1281        21.12 %  of conflicts
c conflicts:                  6066      1104.30    per second
c decisions:                 17597      3203.48    per second
c fixed:                      1971        37.05 %  of all variables
c learned:                    5930        97.76 %  per conflict
c learned_lits:             685273       100.00 %  learned literals
c minimized:                     0         0.00 %  learned literals
c shrunken:                 452180        65.99 %  learned literals
c minishrunken:              39472         5.76 %  learned literals
c propagations:            1550702         0.28 M  per second
c reduced:                    1504        24.79 %  per conflict
c rephased:                      3      2022.00    interval
c restarts:                     99        61.27    interval
c stabilizing:                   1        32.97 %  of conflicts
c substituted:                   9         0.17 %  of all variables
c subsumed:                   2219         0.12 %  of all clauses
c ternary:                    2084         1.17 %  of resolved
c weakened:                     18         2.00    average size
c 
c seconds are measured in process time for solving
c 
c --- [ resources ] ----------------------------------------------------------
c 
c total process time since initialization:        14.32    seconds
c total real time since initialization:           14.35    seconds
c maximum resident set size of process:          747.43    MB
c 
c --- [ shutting down ] ------------------------------------------------------
c 
c exit 10
c --- [ banner ] -------------------------------------------------------------
c 
c CaDiCaL Radically Simplified CDCL SAT Solver
c Copyright (c) 2016-2021 A. Biere, M. Fleury, N. Froleyks
c 
c Version 1.5.2 ca9bff05c11bde5eae4912f9932871d1527e61d8
c g++ (GCC) 9.3.0 -Wall -Wextra -O3 -DNDEBUG
c Sun May 1 02:23:23 EDT 2022 Linux gra-login1 3.10.0-1160.59.1.el7.x86_64 x86_64
c 
c --- [ limit ] --------------------------------------------------------------
c 
c setting conflict limit to 200000 conflicts (due to '200000')
c 
c --- [ parsing input ] ------------------------------------------------------
c 
c reading DIMACS file from 'simp/12.cubes802.adj.simp1'
c opening file to read 'simp/12.cubes802.adj.simp1'
c found 'p cnf 5320 15679' header
c parsed 15679 clauses in 0.03 seconds process time
c closing file 'simp/12.cubes802.adj.simp1'
c after reading 1935132 bytes 1.8 MB
c 
c --- [ options ] ------------------------------------------------------------
c 
c all options are set to their default value
c 
c --- [ solving ] ------------------------------------------------------------
c 
c time measured in process time since initialization
c 
c  seconds  reductions  redundant  irredundant
c         MB    restarts       trail     variables
c          level   conflicts       glue       remaining
c 
c *  0.03  5  0 0   0    0    0  0% 0 15679 3273 62%
c {  0.03  6  0 0   0    0    0  0% 0 15679 3273 62%
c -  0.06  7 25 1  20  303  227 20% 16 15679 3273 62%
c -  0.13  9 21 2  46  904  468 20% 15 15679 3273 62%
c }  0.14  9 22 2  64 1001  535 20% 15 15679 3273 62%
c [  0.14  9  0 2  64 1001  535  0% 0 15679 3273 62%
c O  0.14  9 75 2  64 1002  536  5% 1 15679 3273 62%
c -  0.22  9 86 3  64 1806  922 22% 13 15679 3273 62%
c ]  0.34  9 57 3  65 3004 1792 33% 17 15679 3273 62%
c {  0.34  9 22 3  65 3004 1792 33% 15 15679 3273 62%
c F  0.34  9 22 3  65 3005 1793 33% 15 15679 3273 62%
c -  0.35  9 22 4  65 3006 1273 33% 15 15679 3273 62%
c -  0.46  9 17 5  91 4506 1400 32% 13 15679 3273 62%
c s  0.48  9 17 5  91 4521 1207 32% 13 13783 3273 62%
c v  0.52  9 17 5  91 4521 1207 32% 13 13727 3273 62%
c t  0.52  9 17 5  91 4521 1201 32% 13 13670 3273 62%
c e  0.54 11 17 5  91 4521 1139 32% 13 8490 394  7%
c s  0.56 11 17 5  91 4521 1139 32% 13 8232 394  7%
c 2  0.61 11 17 5 117 5000 1556 29% 13 8229 394  7%
c p  0.63 11 17 5 117 5000 2636 29% 13 8229 394  7%
c 
c  seconds  reductions  redundant  irredundant
c         MB    restarts       trail     variables
c          level   conflicts       glue      remaining
c 
c #  0.69 11 15 5 138 6007 3092 24% 12 8229 394  7%
c -  0.71 11 15 6 157 6306 1845 86% 12 8229 394  7%
c }  0.75 11 15 6 184 7006 2119 86% 12 8229 394  7%
c [  0.75 11 57 6 184 7006 2119 271% 17 8229 394  7%
c -  0.83 11 42 7 185 8406 2043 160% 16 8229 394  7%
c I  0.94 11 35 7 186 10009 3082 129% 17 8229 394  7%
c -  1.00 13 40 8 187 10807 2581 121% 22 8229 394  7%
c -  1.20 13 45 9 189 13507 2871 107% 30 8229 394  7%
c p  1.34 13 45 9 189 15000 5173 103% 31 8229 394  7%
c ]  1.34 13 45 9 189 15008 5180 103% 31 8229 394  7%
c {  1.34 13 15 9 189 15008 5180 86% 12 8229 394  7%
c B  1.34 13 15 9 189 15010 5182 86% 12 8229 394  7%
c -  1.43 13 14 10 268 16509 3225 85% 11 8229 394  7%
c -  1.63 13 14 11 438 19810 3229 85% 12 8229 394  7%
c W  1.73 13 15 11 610 21013 3916 85% 12 8229 394  7%
c s  1.83 13 16 11 727 22061 4525 85% 12 8191 394  7%
c v  1.86 13 16 11 727 22061 4525 85% 12 8181 394  7%
c t  1.86 13 16 11 727 22061 4524 85% 12 8181 394  7%
c s  1.89 13 16 11 727 22061 4523 85% 12 8172 394  7%
c -  1.97 13 16 12 783 23410 3712 85% 12 8172 394  7%
c 
c  seconds  reductions    redundant  irredundant
c         MB     restarts        trail     variables
c          level     conflicts       glue      remaining
c 
c -  2.19 13 15 13 855 27310 3998 85% 12 8172 394  7%
c F  2.23 13 15 13 901 28014 4355 85% 12 8172 394  7%
c p  2.38 13 15 13 1108 30000 6622 85% 12 8172 394  7%
c }  2.44 13 15 13 1131 31009 7048 85% 12 8172 394  7%
c [  2.44 13 45 13 1131 31009 7048 103% 31 8172 394  7%
c -  2.48 13 44 14 1131 31510 4455 102% 31 8172 394  7%
c -  2.74 13 40 15 1134 36010 5267 96% 29 8172 394  7%
c B  2.74 13 40 15 1134 36017 5272 96% 29 8172 394  7%
c ]  2.85 13 40 15 1135 37965 6641 95% 29 8172 394  7%
c 1  2.85 13 40 15 1135 37965 6641 95% 29 8172 394  7%
c 
c --- [ writing output ] -----------------------------------------------------
c 
c writing simplified CNF to DIMACS file 'simp/12.cubes802.adj.simp2'
c *  2.85 13 40 15 1135 37965 6641 95% 29 8172 394  7%
c opening file to write 'simp/12.cubes802.adj.simp2'
c writing 'p cnf 5320 8172' header
c closing file 'simp/12.cubes802.adj.simp2'
c after writing 1687676 bytes 1.6 MB
c wrote 8172 clauses in 0.01 seconds process time
c 
c --- [ writing extension ] --------------------------------------------------
c 
c writing extension stack to 'simp/12.cubes802.adj.ext2'
c opening file to write 'simp/12.cubes802.adj.ext2'
c closing file 'simp/12.cubes802.adj.ext2'
c after writing 129875 bytes 0.1 MB
c wrote 5373 witnesses in 0.00 seconds process time
c 
c --- [ result ] -------------------------------------------------------------
c 
s SATISFIABLE
c 
c --- [ run-time profiling ] -------------------------------------------------
c 
c process time taken by individual solving procedures
c (percentage relative to process time for solving)
c 
c         2.53   89.76% search
c         1.34   47.57% unstable
c         1.17   41.49% stable
c         0.29   10.23% simplify
c         0.10    3.60% subsume
c         0.08    2.67% probe
c         0.06    2.04% vivify
c         0.04    1.45% elim
c         0.03    0.96% parse
c         0.02    0.56% walk
c         0.01    0.18% ternary
c         0.00    0.13% lucky
c   =================================
c         2.82   98.52% solve
c 
c last line shows process time for solving
c (percentage relative to total process time)
c 
c --- [ statistics ] ---------------------------------------------------------
c 
c chronological:              6215        16.37 %  of conflicts
c conflicts:                 37965     13469.40    per second
c decisions:                 61406     21785.91    per second
c eliminated:                 2879        54.12 %  of all variables
c learned:                   37219        98.04 %  per conflict
c learned_lits:            4170151       100.00 %  learned literals
c minimized:                     0         0.00 %  learned literals
c shrunken:                2937926        70.45 %  learned literals
c minishrunken:             150397         3.61 %  learned literals
c propagations:            2238089         0.79 M  per second
c reduced:                   15459        40.72 %  per conflict
c rephased:                      8      4745.62    interval
c restarts:                   1135        33.45    interval
c stabilizing:                   3        44.68 %  of conflicts
c subsumed:                  17479        15.35 %  of all clauses
c strengthened:               1502         1.32 %  of all clauses
c ternary:                     318         1.20 %  of resolved
c vivified:                     68         0.06 %  of all clauses
c walked:                        1     37965.00    interval
c weakened:                   5373         2.88    average size
c 
c seconds are measured in process time for solving
c 
c --- [ resources ] ----------------------------------------------------------
c 
c total process time since initialization:         2.86    seconds
c total real time since initialization:            2.90    seconds
c maximum resident set size of process:           13.16    MB
c 
c --- [ shutting down ] ------------------------------------------------------
c 
c exit 10
WARNING! DIMACS header mismatch: wrong number of variables.
============================[ Problem Statistics ]=============================
|                                                                             |
|  Number of variables:          3678                                         |
|  Number of clauses:            8174                                         |
|  Parse time:                   0.03 s                                       |
|  Simplification time:          0.00 s                                       |
|                                                                             |
============================[ Search Statistics ]====================================================
| Conflicts |          ORIGINAL         |          LEARNT          | Num Sols |      SUBGRAPHS      |
|           |    Vars  Clauses Literals |    Limit  Clauses Lit/Cl |          | Canonical Noncanon. |
=====================================================================================================
|       139 |    3570     8212   364972 |     2000      138     51 |        0 |        17        39 |
|       298 |    3570     8221   365385 |     2000      297     53 |        0 |        18        48 |
|       559 |    3570     8257   365663 |     2000      558     53 |        0 |        21        84 |
|       920 |    3570     8281   365979 |     2000      919     54 |        0 |        24       108 |
|      1427 |    3559     8282   365983 |     2000     1425     54 |        0 |        24       109 |
|      2220 |    3559     8316   366255 |     3599     1219     41 |        0 |        38       143 |
|      3432 |    3559     8389   366834 |     3599     2431     45 |        0 |        50       216 |
=====================================================================================================
Number of solutions   : 0
Canonical subgraphs   : 54             (61 /sec)
          order  3    : 1              (166667 /sec)
          order  4    : 1              (500000 /sec)
          order  5    : 1              (200000 /sec)
          order  6    : 1              (52632 /sec)
          order  7    : 1              (8264 /sec)
          order  8    : 1              (2155 /sec)
          order  9    : 1              (958 /sec)
          order 10    : 1              (452 /sec)
          order 11    : 1              (281 /sec)
          order 12    : 1              (175 /sec)
          order 13    : 3              (122 /sec)
          order 14    : 7              (81 /sec)
          order 15    : 12             (56 /sec)
          order 16    : 22             (40 /sec)
          order 17    : 0              (-nan /sec)
          order 18    : 0              (-nan /sec)
          order 19    : 0              (-nan /sec)
          order 20    : 0              (-nan /sec)
          order 21    : 0              (-nan /sec)
Noncanonical subgraphs: 228            (2955 /sec)
          order  3    : 0              (-nan /sec)
          order  4    : 0              (-nan /sec)
          order  5    : 0              (-nan /sec)
          order  6    : 0              (-nan /sec)
          order  7    : 0              (-nan /sec)
          order  8    : 0              (-nan /sec)
          order  9    : 0              (-nan /sec)
          order 10    : 0              (-nan /sec)
          order 11    : 0              (-nan /sec)
          order 12    : 0              (-nan /sec)
          order 13    : 20             (31153 /sec)
          order 14    : 57             (4931 /sec)
          order 15    : 130            (2545 /sec)
          order 16    : 21             (1513 /sec)
          order 17    : 0              (-nan /sec)
          order 18    : 0              (-nan /sec)
          order 19    : 0              (-nan /sec)
          order 20    : 0              (-nan /sec)
Canonicity checking   : 0.886128 s
Noncanonicity checking: 0.07717 s
Total canonicity time : 0.963298 s
database reductions   : 1
restarts              : 20
conflicts             : 3795           (3260 /sec)
decisions             : 13828          (0.00 % random) (11880 /sec)
propagations          : 151591         (130236 /sec)
conflict literals     : 192805         (50.85 % deleted)
actual reward         : 0.315924
Memory used           : 7.00 MB
CPU time              : 1.16397 s

UNSATISFIABLE
